
  22   10
  10   10   10   10   10   10   10   10   10   10

   0   0   0   0   0   0   0   0   0   0   0   1 2 
   7  10  10  10  10  10  10  10  10  10  10   2 21 3 
   5  10  10  10  10  10  10  10  10  10  10   1 4 
   8  10  10  10  10  10  10  10  10  10  10   1 5 
  10  10  10  10  10  10  10  10  10  10  10   1 6 
   2  10  10  10  10  10  10  10  10  10  10   1 7 
   3  10  10  10  10  10  10  10  10  10  10   1 8 
  10  10  10  10  10  10  10  10  10  10  10   1 9 
   9  10  10  10  10  10  10  10  10  10  10   2 19 10 
   5  10  10  10  10  10  10  10  10  10  10   1 11 
   4  10  10  10  10  10  10  10  10  10  10   1 12 
   2  10  10  10  10  10  10  10  10  10  10   1 13 
   2  10  10  10  10  10  10  10  10  10  10   1 14 
   3  10  10  10  10  10  10  10  10  10  10   1 15 
   5  10  10  10  10  10  10  10  10  10  10   1 16 
   8  10  10  10  10  10  10  10  10  10  10   1 17 
  10  10  10  10  10  10  10  10  10  10  10   1 18 
  10  10  10  10  10  10  10  10  10  10  10   1 20 
   2  10  10  10  10  10  10  10  10  10  10   1 20 
   3  10  10  10  10  10  10  10  10  10  10   1 22
   5  10  10  10  10  10  10  10  10  10  10   1 22
   0   0   0   0   0   0   0   0   0   0   0   0 
